data/solutions/recovery/degenerate/moderate/binding/degenerate_moderate_instance4/10.log

Log started (V12.6.3.0) Fri Apr 20 23:04:12 2018

New value for default parallel thread count: 1

Problem '/tmp/tmpUGYtlY.pyomo.lp' read.
Read time = 0.00 sec. (0.02 ticks)

Problem name         : /tmp/tmpUGYtlY.pyomo.lp
Objective sense      : Minimize
Variables            :      80  [Nneg: 1,  Binary: 75,  General Integer: 4]
Objective nonzeros   :       1
Linear constraints   :      58  [Less: 28,  Equal: 30]
  Nonzeros           :     976
  RHS nonzeros       :      26

Variables            : Min LB: 0.000000         Max UB: 1.000000       
Objective nonzeros   : Min   : 1.000000         Max   : 1.000000       
Linear constraints   :
  Nonzeros           : Min   : 1.000000         Max   : 1072398.       
  RHS nonzeros       : Min   : 1.000000         Max   : 1.000000       
Tried aggregator 2 times.
MIP Presolve eliminated 46 rows and 61 columns.
Aggregator did 10 substitutions.
Reduced MIP has 2 rows, 9 columns, and 18 nonzeros.
Reduced MIP has 8 binaries, 1 generals, 0 SOSs, and 0 indicators.
Presolve time = 0.00 sec. (0.12 ticks)
Found incumbent of value 8715229.000000 after 0.00 sec. (0.16 ticks)
Probing fixed 0 vars, tightened 5 bounds.
Probing time = 0.00 sec. (0.00 ticks)
Tried aggregator 1 time.
Reduced MIP has 2 rows, 9 columns, and 18 nonzeros.
Reduced MIP has 8 binaries, 1 generals, 0 SOSs, and 0 indicators.
Presolve time = 0.00 sec. (0.01 ticks)
Probing time = 0.00 sec. (0.00 ticks)
MIP emphasis: balance optimality and feasibility.
MIP search method: dynamic search.
Parallel mode: none, using 1 thread.
Root relaxation solution time = 0.00 sec. (0.01 ticks)

        Nodes                                         Cuts/
   Node  Left     Objective  IInf  Best Integer    Best Bound    ItCnt     Gap

*     0+    0                      8715229.0000  4689991.0000            46.19%
      0     0  6166411.0000     1  8715229.0000  6166411.0000        0   29.25%
*     0+    0                      6176004.0000  6166411.0000             0.16%
      0     0  6166411.0000     2  6176004.0000      Fract: 1        3    0.16%
*     0+    0                      6171349.0000  6166411.0000             0.08%
      0     0  6166411.0000     3  6171349.0000    MIRcuts: 2        4    0.08%
      0     2  6166411.0000     3  6171349.0000  6166411.0000        4    0.08%
Elapsed time = 0.00 sec. (0.30 ticks, tree = 0.01 MB, solutions = 3)
*     9     2      integral     0  6166595.0000  6166411.0000       13    0.00%

Mixed integer rounding cuts applied:  1
Gomory fractional cuts applied:  1

Root node processing (before b&c):
  Real time             =    0.00 sec. (0.30 ticks)
Sequential b&c:
  Real time             =    0.00 sec. (0.03 ticks)
                          ------------
Total (root+branch&cut) =    0.00 sec. (0.33 ticks)

Solution pool: 4 solutions saved.

MIP - Integer optimal, tolerance (0.0001/1e-06):  Objective =  6.1665950000e+06
Current MIP best bound =  6.1664110000e+06 (gap = 184, 0.00%)
Solution time =    0.00 sec.  Iterations = 13  Nodes = 10 (1)
Deterministic time = 0.33 ticks  (137.41 ticks/sec)


Incumbent solution written to file '/tmp/tmpq718Si.cplex.sol'.
